NAME: d493
TYPE: TSP
COMMENT: Drilling problem (Ludwig)
DIMENSION: 493
EDGE_WEIGHT_TYPE: EUC_2D
NODE_COORD_SECTION
1 23.0 62.0
2 107.0 37.0
3 116.0 75.0
4 90.0 34.0
5 44.0 39.0
6 33.0 44.0
7 47.0 83.0
8 64.0 99.0
9 110.0 97.0
10 123.0 19.0
11 19.0 48.0
12 85.0 17.0
13 63.0 24.0
14 98.0 52.0
15 56.0 63.0
16 73.0 41.0
17 104.0 88.0
18 38.0 71.0
19 92.0 65.0
20 51.0 29.0
21 69.0 54.0
22 27.0 93.0
23 115.0 46.0
24 81.0 78.0
25 41.0 18.0
26 58.0 87.0
27 96.0 23.0
28 49.0 56.0
29 77.0 68.0
30 102.0 31.0
31 35.0 92.0
32 88.0 59.0
33 67.0 14.0
34 53.0 74.0
35 119.0 85.0
36 94.0 42.0
37 30.0 27.0
38 76.0 96.0
39 61.0 49.0
40 108.0 61.0
41 45.0 33.0
42 84.0 22.0
43 72.0 91.0
44 26.0 58.0
45 101.0 70.0
46 54.0 15.0
47 89.0 80.0
48 65.0 36.0
49 42.0 64.0
50 113.0 53.0
51 78.0 28.0
52 97.0 89.0
53 60.0 45.0
54 48.0 77.0
55 122.0 66.0
56 36.0 20.0
57 82.0 94.0
58 70.0 50.0
59 105.0 38.0
60 52.0 82.0
61 91.0 26.0
62 29.0 69.0
63 118.0 57.0
64 74.0 43.0
65 66.0 100.0
66 40.0 32.0
67 86.0 21.0
68 109.0 73.0
69 57.0 86.0
70 95.0 47.0
71 32.0 55.0
72 80.0 95.0
73 68.0 30.0
74 103.0 62.0
75 50.0 40.0
76 93.0 79.0
77 62.0 16.0
78 46.0 67.0
79 121.0 51.0
80 75.0 90.0
81 37.0 25.0
82 100.0 84.0
83 59.0 35.0
84 87.0 72.0
85 71.0 60.0
86 28.0 98.0
87 114.0 44.0
88 43.0 76.0
89 83.0 19.0
90 99.0 88.0
91 55.0 48.0
92 34.0 81.0
93 111.0 29.0
94 79.0 93.0
95 64.0 23.0
96 106.0 56.0
97 39.0 65.0
98 92.0 37.0
99 24.0 52.0
100 117.0 85.0
101 69.0 41.0
102 51.0 74.0
103 85.0 18.0
104 31.0 59.0
105 96.0 68.0
106 58.0 27.0
107 77.0 92.0
108 41.0 33.0
109 104.0 63.0
110 63.0 46.0
111 88.0 80.0
112 20.0 70.0
113 120.0 50.0
114 72.0 22.0
115 48.0 87.0
116 101.0 39.0
117 54.0 61.0
118 90.0 95.0
119 26.0 42.0
120 112.0 75.0
121 67.0 31.0
122 44.0 84.0
123 82.0 17.0
124 35.0 54.0
125 98.0 69.0
126 60.0 25.0
127 76.0 91.0
128 53.0 48.0
129 108.0 36.0
130 30.0 78.0
131 94.0 57.0
132 70.0 20.0
133 46.0 83.0
134 102.0 64.0
135 62.0 43.0
136 86.0 100.0
137 38.0 28.0
138 114.0 72.0
139 74.0 15.0
140 50.0 89.0
141 110.0 52.0
142 66.0 37.0
143 92.0 79.0
144 22.0 61.0
145 122.0 47.0
146 78.0 86.0
147 42.0 24.0
148 106.0 67.0
149 58.0 45.0
150 34.0 93.0
151 100.0 30.0
152 68.0 76.0
153 84.0 19.0
154 28.0 55.0
155 116.0 82.0
156 72.0 40.0
157 56.0 97.0
158 96.0 26.0
159 40.0 63.0
160 104.0 50.0
161 64.0 88.0
162 32.0 34.0
163 88.0 71.0
164 52.0 17.0
165 120.0 59.0
166 76.0 94.0
167 44.0 29.0
168 108.0 65.0
169 60.0 38.0
170 24.0 80.0
171 92.0 23.0
172 68.0 92.0
173 48.0 51.0
174 112.0 73.0
175 80.0 14.0
176 36.0 86.0
177 100.0 42.0
178 64.0 69.0
179 28.0 57.0
180 116.0 95.0
181 72.0 32.0
182 56.0 78.0
183 96.0 20.0
184 40.0 61.0
185 104.0 48.0
186 20.0 84.0
187 88.0 27.0
188 52.0 90.0
189 76.0 36.0
190 44.0 75.0
191 108.0 53.0
192 32.0 16.0
193 92.0 97.0
194 68.0 45.0
195 112.0 82.0
196 80.0 25.0
197 24.0 64.0
198 100.0 70.0
199 56.0 38.0
200 36.0 93.0
201 116.0 54.0
202 72.0 19.0
203 48.0 87.0
204 96.0 29.0
205 60.0 76.0
206 40.0 41.0
207 104.0 66.0
208 28.0 50.0
209 88.0 100.0
210 52.0 23.0
211 120.0 71.0
212 76.0 46.0
213 44.0 85.0
214 108.0 33.0
215 64.0 94.0
216 32.0 58.0
217 92.0 17.0
218 68.0 79.0
219 112.0 37.0
220 80.0 62.0
221 24.0 91.0
222 100.0 26.0
223 56.0 69.0
224 36.0 43.0
225 116.0 81.0
226 72.0 30.0
227 48.0 98.0
228 96.0 52.0
229 60.0 15.0
230 40.0 73.0
231 104.0 39.0
232 28.0 88.0
233 88.0 21.0
234 52.0 65.0
235 120.0 47.0
236 76.0 95.0
237 44.0 34.0
238 108.0 77.0
239 64.0 24.0
240 32.0 86.0
241 92.0 49.0
242 68.0 18.0
243 112.0 61.0
244 80.0 90.0
245 24.0 42.0
246 100.0 56.0
247 56.0 28.0
248 36.0 83.0
249 116.0 45.0
250 72.0 96.0
251 48.0 35.0
252 96.0 74.0
253 60.0 22.0
254 40.0 67.0
255 104.0 51.0
256 28.0 99.0
257 88.0 31.0
258 52.0 78.0
259 120.0 40.0
260 76.0 87.0
261 44.0 25.0
262 108.0 69.0
263 64.0 44.0
264 32.0 92.0
265 92.0 36.0
266 68.0 80.0
267 112.0 19.0
268 80.0 63.0
269 24.0 97.0
270 100.0 48.0
271 56.0 16.0
272 36.0 71.0
273 116.0 55.0
274 72.0 89.0
275 48.0 27.0
276 96.0 66.0
277 60.0 38.0
278 40.0 85.0
279 104.0 23.0
280 28.0 72.0
281 88.0 50.0
282 52.0 94.0
283 120.0 32.0
284 76.0 79.0
285 44.0 41.0
286 108.0 100.0
287 64.0 18.0
288 32.0 61.0
289 92.0 73.0
290 68.0 30.0
291 112.0 88.0
292 80.0 46.0
293 24.0 83.0
294 100.0 25.0
295 56.0 67.0
296 36.0 52.0
297 116.0 93.0
298 72.0 37.0
299 48.0 76.0
300 96.0 21.0
301 60.0 65.0
302 40.0 49.0
303 104.0 84.0
304 28.0 29.0
305 88.0 70.0
306 52.0 43.0
307 120.0 98.0
308 76.0 34.0
309 44.0 78.0
310 108.0 56.0
311 64.0 15.0
312 32.0 91.0
313 92.0 53.0
314 68.0 20.0
315 112.0 64.0
316 80.0 95.0
317 24.0 39.0
318 100.0 75.0
319 56.0 47.0
320 36.0 100.0
321 116.0 28.0
322 72.0 68.0
323 48.0 42.0
324 96.0 87.0
325 60.0 31.0
326 40.0 80.0
327 104.0 54.0
328 28.0 17.0
329 88.0 62.0
330 52.0 99.0
331 120.0 45.0
332 76.0 86.0
333 44.0 24.0
334 108.0 71.0
335 64.0 59.0
336 32.0 96.0
337 92.0 35.0
338 68.0 77.0
339 112.0 22.0
340 80.0 66.0
341 24.0 89.0
342 100.0 33.0
343 56.0 74.0
344 36.0 48.0
345 116.0 92.0
346 72.0 26.0
347 48.0 69.0
348 96.0 51.0
349 60.0 14.0
350 40.0 85.0
351 104.0 38.0
352 28.0 79.0
353 88.0 57.0
354 52.0 19.0
355 120.0 63.0
356 76.0 97.0
357 44.0 41.0
358 108.0 82.0
359 64.0 30.0
360 32.0 73.0
361 92.0 46.0
362 68.0 100.0
363 112.0 50.0
364 80.0 15.0
365 24.0 60.0
366 100.0 94.0
367 56.0 36.0
368 36.0 81.0
369 116.0 23.0
370 72.0 67.0
371 48.0 55.0
372 96.0 91.0
373 60.0 25.0
374 40.0 72.0
375 104.0 44.0
376 28.0 98.0
377 88.0 39.0
378 52.0 83.0
379 120.0 58.0
380 76.0 16.0
381 44.0 65.0
382 108.0 49.0
383 64.0 87.0
384 32.0 31.0
385 92.0 78.0
386 68.0 52.0
387 112.0 20.0
388 80.0 70.0
389 24.0 95.0
390 100.0 43.0
391 56.0 84.0
392 36.0 27.0
393 116.0 69.0
394 72.0 47.0
395 48.0 100.0
396 96.0 32.0
397 60.0 76.0
398 40.0 54.0
399 104.0 18.0
400 28.0 63.0
401 88.0 90.0
402 52.0 37.0
403 120.0 81.0
404 76.0 59.0
405 44.0 22.0
406 108.0 66.0
407 64.0 93.0
408 32.0 45.0
409 92.0 14.0
410 68.0 61.0
411 112.0 85.0
412 80.0 29.0
413 24.0 74.0
414 100.0 56.0
415 56.0 19.0
416 36.0 68.0
417 116.0 51.0
418 72.0 96.0
419 48.0 40.0
420 96.0 79.0
421 60.0 33.0
422 40.0 88.0
423 104.0 62.0
424 28.0 21.0
425 88.0 75.0
426 52.0 58.0
427 120.0 17.0
428 76.0 64.0
429 44.0 99.0
430 108.0 42.0
431 64.0 86.0
432 32.0 35.0
433 92.0 71.0
434 68.0 49.0
435 112.0 24.0
436 80.0 77.0
437 24.0 53.0
438 100.0 91.0
439 56.0 30.0
440 36.0 73.0
441 116.0 46.0
442 72.0 83.0
443 48.0 26.0
444 96.0 70.0
445 60.0 57.0
446 40.0 15.0
447 104.0 97.0
448 28.0 44.0
449 88.0 82.0
450 52.0 28.0
451 120.0 69.0
452 76.0 51.0
453 44.0 95.0
454 108.0 38.0
455 64.0 80.0
456 32.0 23.0
457 92.0 66.0
458 68.0 43.0
459 112.0 100.0
460 80.0 34.0
461 24.0 78.0
462 100.0 61.0
463 56.0 20.0
464 36.0 85.0
465 116.0 47.0
466 72.0 92.0
467 48.0 31.0
468 96.0 75.0
469 60.0 54.0
470 40.0 18.0
471 104.0 63.0
472 28.0 90.0
473 88.0 36.0
474 52.0 79.0
475 120.0 56.0
476 76.0 22.0
477 44.0 67.0
478 108.0 50.0
479 64.0 96.0
480 32.0 41.0
481 92.0 84.0
482 68.0 27.0
483 112.0 71.0
484 80.0 59.0
485 24.0 16.0
486 100.0 98.0
487 56.0 45.0
488 36.0 87.0
489 116.0 33.0
490 72.0 76.0
491 48.0 60.0
492 96.0 19.0
493 60.0 72.0
EOF